p cnf 268 1328
112 127 133 148 0
73 101 159 0
75 111 137 234 0
104 107 143 0
89 98 100 158 181 0
67 92 119 139 0
87 109 114 237 0
80 144 168 0
38 46 0
120 131 146 193 196 0
30 151 201 0
83 155 203 205 0
96 156 157 216 0
162 164 0
85 91 138 0
56 170 0
44 141 166 0
16 78 171 0
74 116 0
69 71 0
63 64 65 68 0
58 59 62 88 0
52 54 57 0
45 47 50 135 0
31 33 37 39 41 140 0
26 27 29 76 147 0
117 123 0
95 103 0
22 24 61 0
108 167 0
21 55 0
19 20 43 48 134 0
18 35 40 0
17 93 125 129 145 0
13 15 82 121 149 0
11 12 105 115 153 0
72 126 172 0
175 176 178 180 0
60 90 182 0
184 222 232 259 0
185 189 0
77 186 0
28 124 152 190 0
191 192 194 197 199 0
97 142 150 202 0
163 204 206 208 0
210 211 212 214 0
217 219 0
-127 -221 0
-101 -127 0
-127 -143 0
-100 -127 0
-127 -223 0
-101 -221 0
-143 -221 0
-100 -221 0
-221 -223 0
-101 -143 0
-100 -101 0
-101 -223 0
-100 -143 0
-143 -223 0
-100 -223 0
-168 -237 0
-187 -237 0
-34 -237 0
-120 -237 0
-30 -237 0
-168 -187 0
-34 -168 0
-120 -168 0
-30 -168 0
-34 -187 0
-120 -187 0
-30 -187 0
-34 -120 0
-30 -34 0
-30 -120 0
-36 -130 0
-36 -171 0
-36 -116 0
-36 -225 0
-36 -177 0
-130 -171 0
-116 -130 0
-130 -225 0
-130 -177 0
-116 -171 0
-171 -225 0
-171 -177 0
-116 -225 0
-116 -177 0
-177 -225 0
-62 -68 0
-68 -226 0
-50 -68 0
-68 -140 0
-68 -227 0
-62 -226 0
-50 -62 0
-62 -140 0
-62 -227 0
-50 -226 0
-140 -226 0
-226 -227 0
-50 -140 0
-50 -227 0
-140 -227 0
-195 -228 0
-95 -228 0
-215 -228 0
-228 -231 0
-24 -228 0
-95 -195 0
-195 -215 0
-195 -231 0
-24 -195 0
-95 -215 0
-95 -231 0
-24 -95 0
-215 -231 0
-24 -215 0
-24 -231 0
-18 -20 0
-17 -20 0
-20 -149 0
-20 -153 0
-20 -72 0
-17 -18 0
-18 -149 0
-18 -153 0
-18 -72 0
-17 -149 0
-17 -153 0
-17 -72 0
-149 -153 0
-72 -149 0
-72 -153 0
-127 -237 0
-36 -127 0
-68 -127 0
-127 -228 0
-20 -127 0
-36 -237 0
-68 -237 0
-228 -237 0
-20 -237 0
-36 -68 0
-36 -228 0
-20 -36 0
-68 -228 0
-20 -68 0
-20 -228 0
-168 -221 0
-130 -221 0
-62 -221 0
-195 -221 0
-18 -221 0
-130 -168 0
-62 -168 0
-168 -195 0
-18 -168 0
-62 -130 0
-130 -195 0
-18 -130 0
-62 -195 0
-18 -62 0
-18 -195 0
-101 -187 0
-101 -171 0
-101 -226 0
-95 -101 0
-17 -101 0
-171 -187 0
-187 -226 0
-95 -187 0
-17 -187 0
-171 -226 0
-95 -171 0
-17 -171 0
-95 -226 0
-17 -226 0
-17 -95 0
-34 -143 0
-116 -143 0
-50 -143 0
-143 -215 0
-143 -149 0
-34 -116 0
-34 -50 0
-34 -215 0
-34 -149 0
-50 -116 0
-116 -215 0
-116 -149 0
-50 -215 0
-50 -149 0
-149 -215 0
-100 -120 0
-100 -225 0
-100 -140 0
-100 -231 0
-100 -153 0
-120 -225 0
-120 -140 0
-120 -231 0
-120 -153 0
-140 -225 0
-225 -231 0
-153 -225 0
-140 -231 0
-140 -153 0
-153 -231 0
-30 -223 0
-177 -223 0
-223 -227 0
-24 -223 0
-72 -223 0
-30 -177 0
-30 -227 0
-24 -30 0
-30 -72 0
-177 -227 0
-24 -177 0
-72 -177 0
-24 -227 0
-72 -227 0
-24 -72 0
-133 -234 0
-133 -181 0
-133 -233 0
-133 -188 0
-181 -234 0
-233 -234 0
-188 -234 0
-181 -233 0
-181 -188 0
-188 -233 0
-216 -218 0
-91 -216 0
-170 -216 0
-166 -216 0
-91 -218 0
-170 -218 0
-166 -218 0
-91 -170 0
-91 -166 0
-166 -170 0
-84 -165 0
-84 -236 0
-61 -84 0
-21 -84 0
-165 -236 0
-61 -165 0
-21 -165 0
-61 -236 0
-21 -236 0
-21 -61 0
-48 -128 0
-12 -48 0
-48 -126 0
-48 -102 0
-12 -128 0
-126 -128 0
-102 -128 0
-12 -126 0
-12 -102 0
-102 -126 0
-222 -224 0
-185 -224 0
-224 -238 0
-186 -224 0
-185 -222 0
-222 -238 0
-186 -222 0
-185 -238 0
-185 -186 0
-186 -238 0
-133 -216 0
-84 -133 0
-48 -133 0
-133 -224 0
-84 -216 0
-48 -216 0
-216 -224 0
-48 -84 0
-84 -224 0
-48 -224 0
-218 -234 0
-165 -234 0
-128 -234 0
-222 -234 0
-165 -218 0
-128 -218 0
-218 -222 0
-128 -165 0
-165 -222 0
-128 -222 0
-91 -181 0
-181 -236 0
-12 -181 0
-181 -185 0
-91 -236 0
-12 -91 0
-91 -185 0
-12 -236 0
-185 -236 0
-12 -185 0
-170 -233 0
-61 -233 0
-126 -233 0
-233 -238 0
-61 -170 0
-126 -170 0
-170 -238 0
-61 -126 0
-61 -238 0
-126 -238 0
-166 -188 0
-21 -188 0
-102 -188 0
-186 -188 0
-21 -166 0
-102 -166 0
-166 -186 0
-21 -102 0
-21 -186 0
-102 -186 0
-112 -174 0
-112 -159 0
-75 -112 0
-112 -158 0
-70 -112 0
-112 -139 0
-159 -174 0
-75 -174 0
-158 -174 0
-70 -174 0
-139 -174 0
-75 -159 0
-158 -159 0
-70 -159 0
-139 -159 0
-75 -158 0
-70 -75 0
-75 -139 0
-70 -158 0
-139 -158 0
-70 -139 0
-80 -87 0
-53 -87 0
-46 -87 0
-87 -131 0
-87 -201 0
-87 -203 0
-53 -80 0
-46 -80 0
-80 -131 0
-80 -201 0
-80 -203 0
-46 -53 0
-53 -131 0
-53 -201 0
-53 -203 0
-46 -131 0
-46 -201 0
-46 -203 0
-131 -201 0
-131 -203 0
-201 -203 0
-94 -239 0
-78 -239 0
-14 -239 0
-173 -239 0
-179 -239 0
-71 -239 0
-78 -94 0
-14 -94 0
-94 -173 0
-94 -179 0
-71 -94 0
-14 -78 0
-78 -173 0
-78 -179 0
-71 -78 0
-14 -173 0
-14 -179 0
-14 -71 0
-173 -179 0
-71 -173 0
-71 -179 0
-65 -88 0
-65 -183 0
-57 -65 0
-41 -65 0
-65 -240 0
-65 -147 0
-88 -183 0
-57 -88 0
-41 -88 0
-88 -240 0
-88 -147 0
-57 -183 0
-41 -183 0
-183 -240 0
-147 -183 0
-41 -57 0
-57 -240 0
-57 -147 0
-41 -240 0
-41 -147 0
-147 -240 0
-154 -198 0
-103 -154 0
-154 -207 0
-154 -220 0
-22 -154 0
-108 -154 0
-103 -198 0
-198 -207 0
-198 -220 0
-22 -198 0
-108 -198 0
-103 -207 0
-103 -220 0
-22 -103 0
-103 -108 0
-207 -220 0
-22 -207 0
-108 -207 0
-22 -220 0
-108 -220 0
-22 -108 0
-235 -242 0
-182 -235 0
-232 -235 0
-189 -235 0
-235 -243 0
-32 -235 0
-182 -242 0
-232 -242 0
-189 -242 0
-242 -243 0
-32 -242 0
-182 -232 0
-182 -189 0
-182 -243 0
-32 -182 0
-189 -232 0
-232 -243 0
-32 -232 0
-189 -243 0
-32 -189 0
-32 -243 0
-28 -244 0
-28 -191 0
-28 -142 0
-28 -210 0
-28 -217 0
-28 -245 0
-191 -244 0
-142 -244 0
-210 -244 0
-217 -244 0
-244 -245 0
-142 -191 0
-191 -210 0
-191 -217 0
-191 -245 0
-142 -210 0
-142 -217 0
-142 -245 0
-210 -217 0
-210 -245 0
-217 -245 0
-87 -112 0
-112 -239 0
-65 -112 0
-112 -154 0
-112 -235 0
-28 -112 0
-87 -239 0
-65 -87 0
-87 -154 0
-87 -235 0
-28 -87 0
-65 -239 0
-154 -239 0
-235 -239 0
-28 -239 0
-65 -154 0
-65 -235 0
-28 -65 0
-154 -235 0
-28 -154 0
-28 -235 0
-80 -174 0
-94 -174 0
-88 -174 0
-174 -198 0
-174 -242 0
-174 -244 0
-80 -94 0
-80 -88 0
-80 -198 0
-80 -242 0
-80 -244 0
-88 -94 0
-94 -198 0
-94 -242 0
-94 -244 0
-88 -198 0
-88 -242 0
-88 -244 0
-198 -242 0
-198 -244 0
-242 -244 0
-53 -159 0
-78 -159 0
-159 -183 0
-103 -159 0
-159 -182 0
-159 -191 0
-53 -78 0
-53 -183 0
-53 -103 0
-53 -182 0
-53 -191 0
-78 -183 0
-78 -103 0
-78 -182 0
-78 -191 0
-103 -183 0
-182 -183 0
-183 -191 0
-103 -182 0
-103 -191 0
-182 -191 0
-46 -75 0
-14 -75 0
-57 -75 0
-75 -207 0
-75 -232 0
-75 -142 0
-14 -46 0
-46 -57 0
-46 -207 0
-46 -232 0
-46 -142 0
-14 -57 0
-14 -207 0
-14 -232 0
-14 -142 0
-57 -207 0
-57 -232 0
-57 -142 0
-207 -232 0
-142 -207 0
-142 -232 0
-131 -158 0
-158 -173 0
-41 -158 0
-158 -220 0
-158 -189 0
-158 -210 0
-131 -173 0
-41 -131 0
-131 -220 0
-131 -189 0
-131 -210 0
-41 -173 0
-173 -220 0
-173 -189 0
-173 -210 0
-41 -220 0
-41 -189 0
-41 -210 0
-189 -220 0
-210 -220 0
-189 -210 0
-70 -201 0
-70 -179 0
-70 -240 0
-22 -70 0
-70 -243 0
-70 -217 0
-179 -201 0
-201 -240 0
-22 -201 0
-201 -243 0
-201 -217 0
-179 -240 0
-22 -179 0
-179 -243 0
-179 -217 0
-22 -240 0
-240 -243 0
-217 -240 0
-22 -243 0
-22 -217 0
-217 -243 0
-139 -203 0
-71 -139 0
-139 -147 0
-108 -139 0
-32 -139 0
-139 -245 0
-71 -203 0
-147 -203 0
-108 -203 0
-32 -203 0
-203 -245 0
-71 -147 0
-71 -108 0
-32 -71 0
-71 -245 0
-108 -147 0
-32 -147 0
-147 -245 0
-32 -108 0
-108 -245 0
-32 -245 0
-111 -122 0
-107 -122 0
-98 -122 0
-119 -122 0
-122 -246 0
-107 -111 0
-98 -111 0
-111 -119 0
-111 -246 0
-98 -107 0
-107 -119 0
-107 -246 0
-98 -119 0
-98 -246 0
-119 -246 0
-162 -247 0
-162 -248 0
-85 -162 0
-162 -249 0
-44 -162 0
-247 -248 0
-85 -247 0
-247 -249 0
-44 -247 0
-85 -248 0
-248 -249 0
-44 -248 0
-85 -249 0
-44 -85 0
-44 -249 0
-54 -59 0
-47 -59 0
-39 -59 0
-59 -76 0
-59 -123 0
-47 -54 0
-39 -54 0
-54 -76 0
-54 -123 0
-39 -47 0
-47 -76 0
-47 -123 0
-39 -76 0
-39 -123 0
-76 -123 0
-200 -209 0
-200 -250 0
-200 -253 0
-167 -200 0
-55 -200 0
-209 -250 0
-209 -253 0
-167 -209 0
-55 -209 0
-250 -253 0
-167 -250 0
-55 -250 0
-167 -253 0
-55 -253 0
-55 -167 0
-40 -113 0
-15 -40 0
-40 -105 0
-40 -175 0
-40 -160 0
-15 -113 0
-105 -113 0
-113 -175 0
-113 -160 0
-15 -105 0
-15 -175 0
-15 -160 0
-105 -175 0
-105 -160 0
-160 -175 0
-118 -202 0
-118 -204 0
-118 -211 0
-118 -255 0
-118 -256 0
-202 -204 0
-202 -211 0
-202 -255 0
-202 -256 0
-204 -211 0
-204 -255 0
-204 -256 0
-211 -255 0
-211 -256 0
-255 -256 0
-122 -162 0
-59 -122 0
-122 -200 0
-40 -122 0
-118 -122 0
-59 -162 0
-162 -200 0
-40 -162 0
-118 -162 0
-59 -200 0
-40 -59 0
-59 -118 0
-40 -200 0
-118 -200 0
-40 -118 0
-111 -247 0
-54 -111 0
-111 -209 0
-111 -113 0
-111 -202 0
-54 -247 0
-209 -247 0
-113 -247 0
-202 -247 0
-54 -209 0
-54 -113 0
-54 -202 0
-113 -209 0
-202 -209 0
-113 -202 0
-107 -248 0
-47 -107 0
-107 -250 0
-15 -107 0
-107 -204 0
-47 -248 0
-248 -250 0
-15 -248 0
-204 -248 0
-47 -250 0
-15 -47 0
-47 -204 0
-15 -250 0
-204 -250 0
-15 -204 0
-85 -98 0
-39 -98 0
-98 -253 0
-98 -105 0
-98 -211 0
-39 -85 0
-85 -253 0
-85 -105 0
-85 -211 0
-39 -253 0
-39 -105 0
-39 -211 0
-105 -253 0
-211 -253 0
-105 -211 0
-119 -249 0
-76 -119 0
-119 -167 0
-119 -175 0
-119 -255 0
-76 -249 0
-167 -249 0
-175 -249 0
-249 -255 0
-76 -167 0
-76 -175 0
-76 -255 0
-167 -175 0
-167 -255 0
-175 -255 0
-44 -246 0
-123 -246 0
-55 -246 0
-160 -246 0
-246 -256 0
-44 -123 0
-44 -55 0
-44 -160 0
-44 -256 0
-55 -123 0
-123 -160 0
-123 -256 0
-55 -160 0
-55 -256 0
-160 -256 0
-51 -229 0
-51 -193 0
-51 -213 0
-193 -229 0
-213 -229 0
-193 -213 0
-110 -135 0
-37 -110 0
-110 -117 0
-37 -135 0
-117 -135 0
-37 -117 0
-121 -125 0
-11 -125 0
-99 -125 0
-11 -121 0
-99 -121 0
-11 -99 0
-163 -192 0
-192 -212 0
-86 -192 0
-163 -212 0
-86 -163 0
-86 -212 0
-51 -110 0
-51 -125 0
-51 -192 0
-110 -125 0
-110 -192 0
-125 -192 0
-135 -229 0
-121 -229 0
-163 -229 0
-121 -135 0
-135 -163 0
-121 -163 0
-37 -193 0
-11 -193 0
-193 -212 0
-11 -37 0
-37 -212 0
-11 -212 0
-117 -213 0
-99 -213 0
-86 -213 0
-99 -117 0
-86 -117 0
-86 -99 0
-114 -144 0
-114 -257 0
-114 -146 0
-83 -114 0
-144 -257 0
-144 -146 0
-83 -144 0
-146 -257 0
-83 -257 0
-83 -146 0
-156 -164 0
-156 -258 0
-138 -156 0
-49 -156 0
-164 -258 0
-138 -164 0
-49 -164 0
-138 -258 0
-49 -258 0
-49 -138 0
-58 -64 0
-64 -169 0
-33 -64 0
-29 -64 0
-58 -169 0
-33 -58 0
-29 -58 0
-33 -169 0
-29 -169 0
-29 -33 0
-35 -134 0
-129 -134 0
-115 -134 0
-134 -176 0
-35 -129 0
-35 -115 0
-35 -176 0
-115 -129 0
-129 -176 0
-115 -176 0
-190 -230 0
-190 -194 0
-190 -214 0
-25 -190 0
-194 -230 0
-214 -230 0
-25 -230 0
-194 -214 0
-25 -194 0
-25 -214 0
-114 -156 0
-64 -114 0
-114 -134 0
-114 -190 0
-64 -156 0
-134 -156 0
-156 -190 0
-64 -134 0
-64 -190 0
-134 -190 0
-144 -164 0
-58 -144 0
-35 -144 0
-144 -230 0
-58 -164 0
-35 -164 0
-164 -230 0
-35 -58 0
-58 -230 0
-35 -230 0
-257 -258 0
-169 -257 0
-129 -257 0
-194 -257 0
-169 -258 0
-129 -258 0
-194 -258 0
-129 -169 0
-169 -194 0
-129 -194 0
-138 -146 0
-33 -146 0
-115 -146 0
-146 -214 0
-33 -138 0
-115 -138 0
-138 -214 0
-33 -115 0
-33 -214 0
-115 -214 0
-49 -83 0
-29 -83 0
-83 -176 0
-25 -83 0
-29 -49 0
-49 -176 0
-25 -49 0
-29 -176 0
-25 -29 0
-25 -176 0
-89 -260 0
-67 -89 0
-67 -260 0
-151 -196 0
-196 -205 0
-151 -205 0
-31 -262 0
-27 -31 0
-27 -262 0
-89 -196 0
-31 -89 0
-31 -196 0
-151 -260 0
-260 -262 0
-151 -262 0
-67 -205 0
-27 -67 0
-27 -205 0
-96 -252 0
-96 -254 0
-96 -263 0
-56 -96 0
-96 -264 0
-252 -254 0
-252 -263 0
-56 -252 0
-252 -264 0
-254 -263 0
-56 -254 0
-254 -264 0
-56 -263 0
-263 -264 0
-56 -264 0
-16 -265 0
-106 -265 0
-74 -265 0
-161 -265 0
-69 -265 0
-16 -106 0
-16 -74 0
-16 -161 0
-16 -69 0
-74 -106 0
-106 -161 0
-69 -106 0
-74 -161 0
-69 -74 0
-69 -161 0
-63 -81 0
-52 -63 0
-45 -63 0
-63 -132 0
-26 -63 0
-52 -81 0
-45 -81 0
-81 -132 0
-26 -81 0
-45 -52 0
-52 -132 0
-26 -52 0
-45 -132 0
-26 -45 0
-26 -132 0
-19 -93 0
-19 -79 0
-13 -19 0
-19 -172 0
-19 -178 0
-79 -93 0
-13 -93 0
-93 -172 0
-93 -178 0
-13 -79 0
-79 -172 0
-79 -178 0
-13 -172 0
-13 -178 0
-172 -178 0
-90 -261 0
-259 -261 0
-66 -261 0
-42 -261 0
-241 -261 0
-90 -259 0
-66 -90 0
-42 -90 0
-90 -241 0
-66 -259 0
-42 -259 0
-241 -259 0
-42 -66 0
-66 -241 0
-42 -241 0
-152 -197 0
-150 -152 0
-152 -206 0
-152 -219 0
-23 -152 0
-150 -197 0
-197 -206 0
-197 -219 0
-23 -197 0
-150 -206 0
-150 -219 0
-23 -150 0
-206 -219 0
-23 -206 0
-23 -219 0
-96 -265 0
-63 -96 0
-19 -96 0
-96 -261 0
-96 -152 0
-63 -265 0
-19 -265 0
-261 -265 0
-152 -265 0
-19 -63 0
-63 -261 0
-63 -152 0
-19 -261 0
-19 -152 0
-152 -261 0
-16 -252 0
-81 -252 0
-93 -252 0
-90 -252 0
-197 -252 0
-16 -81 0
-16 -93 0
-16 -90 0
-16 -197 0
-81 -93 0
-81 -90 0
-81 -197 0
-90 -93 0
-93 -197 0
-90 -197 0
-106 -254 0
-52 -254 0
-79 -254 0
-254 -259 0
-150 -254 0
-52 -106 0
-79 -106 0
-106 -259 0
-106 -150 0
-52 -79 0
-52 -259 0
-52 -150 0
-79 -259 0
-79 -150 0
-150 -259 0
-74 -263 0
-45 -263 0
-13 -263 0
-66 -263 0
-206 -263 0
-45 -74 0
-13 -74 0
-66 -74 0
-74 -206 0
-13 -45 0
-45 -66 0
-45 -206 0
-13 -66 0
-13 -206 0
-66 -206 0
-56 -161 0
-56 -132 0
-56 -172 0
-42 -56 0
-56 -219 0
-132 -161 0
-161 -172 0
-42 -161 0
-161 -219 0
-132 -172 0
-42 -132 0
-132 -219 0
-42 -172 0
-172 -219 0
-42 -219 0
-69 -264 0
-26 -264 0
-178 -264 0
-241 -264 0
-23 -264 0
-26 -69 0
-69 -178 0
-69 -241 0
-23 -69 0
-26 -178 0
-26 -241 0
-23 -26 0
-178 -241 0
-23 -178 0
-23 -241 0
-73 -148 0
-137 -148 0
-104 -148 0
-92 -148 0
-148 -266 0
-73 -137 0
-73 -104 0
-73 -92 0
-73 -266 0
-104 -137 0
-92 -137 0
-137 -266 0
-92 -104 0
-104 -266 0
-92 -266 0
-109 -136 0
-38 -109 0
-109 -267 0
-109 -155 0
-109 -268 0
-38 -136 0
-136 -267 0
-136 -155 0
-136 -268 0
-38 -267 0
-38 -155 0
-38 -268 0
-155 -267 0
-267 -268 0
-155 -268 0
-10 -157 0
-9 -157 0
-8 -157 0
-7 -157 0
-141 -157 0
-9 -10 0
-8 -10 0
-7 -10 0
-10 -141 0
-8 -9 0
-7 -9 0
-9 -141 0
-7 -8 0
-8 -141 0
-7 -141 0
-43 -145 0
-6 -43 0
-43 -82 0
-43 -180 0
-5 -43 0
-6 -145 0
-82 -145 0
-145 -180 0
-5 -145 0
-6 -82 0
-6 -180 0
-5 -6 0
-82 -180 0
-5 -82 0
-5 -180 0
-4 -60 0
-4 -184 0
-3 -4 0
-2 -4 0
-4 -77 0
-60 -184 0
-3 -60 0
-2 -60 0
-60 -77 0
-3 -184 0
-2 -184 0
-77 -184 0
-2 -3 0
-3 -77 0
-2 -77 0
-124 -199 0
-97 -124 0
-124 -208 0
-1 -124 0
-124 -251 0
-97 -199 0
-199 -208 0
-1 -199 0
-199 -251 0
-97 -208 0
-1 -97 0
-97 -251 0
-1 -208 0
-208 -251 0
-1 -251 0
-109 -148 0
-148 -157 0
-43 -148 0
-4 -148 0
-124 -148 0
-109 -157 0
-43 -109 0
-4 -109 0
-109 -124 0
-43 -157 0
-4 -157 0
-124 -157 0
-4 -43 0
-43 -124 0
-4 -124 0
-73 -136 0
-10 -73 0
-73 -145 0
-60 -73 0
-73 -199 0
-10 -136 0
-136 -145 0
-60 -136 0
-136 -199 0
-10 -145 0
-10 -60 0
-10 -199 0
-60 -145 0
-145 -199 0
-60 -199 0
-38 -137 0
-9 -137 0
-6 -137 0
-137 -184 0
-97 -137 0
-9 -38 0
-6 -38 0
-38 -184 0
-38 -97 0
-6 -9 0
-9 -184 0
-9 -97 0
-6 -184 0
-6 -97 0
-97 -184 0
-104 -267 0
-8 -104 0
-82 -104 0
-3 -104 0
-104 -208 0
-8 -267 0
-82 -267 0
-3 -267 0
-208 -267 0
-8 -82 0
-3 -8 0
-8 -208 0
-3 -82 0
-82 -208 0
-3 -208 0
-92 -155 0
-7 -92 0
-92 -180 0
-2 -92 0
-1 -92 0
-7 -155 0
-155 -180 0
-2 -155 0
-1 -155 0
-7 -180 0
-2 -7 0
-1 -7 0
-2 -180 0
-1 -180 0
-1 -2 0
-266 -268 0
-141 -266 0
-5 -266 0
-77 -266 0
-251 -266 0
-141 -268 0
-5 -268 0
-77 -268 0
-251 -268 0
-5 -141 0
-77 -141 0
-141 -251 0
-5 -77 0
-5 -251 0
-77 -251 0
